(set-logic HORN)
(set-info :source |
    Benchmark: C_VC
    Output by Princess (http://www.philipp.ruemmer.org/princess.shtml)
|)
(set-info :status unknown)
(declare-fun inv_main10 (Int Int Int Int Int Int Int) Bool)
(declare-fun inv_main13 (Int Int Int Int Int Int Int) Bool)
(declare-fun inv_main6 (Int Int Int Int Int) Bool)
(assert (forall ((var0 Int)) (forall ((var1 Int)) (inv_main6 var0 var1 0 0 0 ) ) ) )
(assert (forall ((var0 Int)) (forall ((var1 Int)) (forall ((var2 Int)) (forall ((var3 Int)) (forall ((var4 Int)) (forall ((var5 Int)) (forall ((var6 Int)) (or (not (inv_main10 var3 var6 var1 var4 var2 var5 var0 ) ) (inv_main13 var3 var6 var1 var4 (+ var2 var4 ) var5 (+ var0 var5 ) ) ) ) ) ) ) ) ) ) )
(assert (forall ((var0 Int)) (forall ((var1 Int)) (forall ((var2 Int)) (forall ((var3 Int)) (forall ((var4 Int)) (forall ((var5 Int)) (forall ((var6 Int)) (or (not (and (inv_main13 var3 var6 var1 var4 var2 var5 var0 ) (<= 0 (+ (+ var3 (* (- 1) (+ var1 1 ) ) ) (- 1) ) ) ) ) (inv_main10 var3 var6 (+ var1 1 ) (+ (* 5 (+ var1 1 ) ) var6 ) var2 (+ var5 5 ) var0 ) ) ) ) ) ) ) ) ) )
(assert (forall ((var0 Int)) (forall ((var1 Int)) (forall ((var2 Int)) (forall ((var3 Int)) (forall ((var4 Int)) (or (not (and (inv_main6 var2 var4 var0 var3 var1 ) (<= 0 (+ (+ var2 (* (- 1) var0 ) ) (- 1) ) ) ) ) (inv_main10 var2 var4 var0 (+ (* 5 var0 ) var4 ) var1 var4 0 ) ) ) ) ) ) ) )
(assert (forall ((var0 Int)) (forall ((var1 Int)) (forall ((var2 Int)) (forall ((var3 Int)) (forall ((var4 Int)) (forall ((var5 Int)) (forall ((var6 Int)) (not (and (inv_main10 var3 var6 var1 var4 var2 var5 var0 ) (not (= var4 var5 ) ) ) ) ) ) ) ) ) ) ) )
(assert (forall ((var0 Int)) (forall ((var1 Int)) (forall ((var2 Int)) (forall ((var3 Int)) (forall ((var4 Int)) (forall ((var5 Int)) (forall ((var6 Int)) (not (and (inv_main13 var3 var6 var1 var4 var2 var5 var0 ) (not (= var2 var0 ) ) ) ) ) ) ) ) ) ) ) )
(check-sat)
